%chk=C:\Users\ayhan\Desktop\bekir\Ar.chk
# opt freq b3lyp/6-31g(d) geom=connectivity

Title Card Required

0 1
 C                  0.23468899   -0.81570712    0.07997244
 C                  1.45229101   -0.78760034   -0.61301497
 C                  2.27244808    0.34432323   -0.53607530
 C                  1.90322290    1.42321321    0.27761156
 C                  0.71456836    1.37043730    1.01673025
 C                 -0.12038769    0.25076605    0.91815361
 C                 -0.70986017   -2.01846321   -0.07848819
 C                 -1.26772858   -3.96765812   -1.21776008
 C                 -2.35873845   -4.14566504   -0.36854293
 C                 -2.58555349   -3.20620310    0.63572803
 H                  3.18281629    0.38236001   -1.09531048
 H                  2.53028539    2.28645699    0.33664358
 H                  0.44320702    2.18561341    1.65449558
 H                 -1.03076383    0.21191716    1.47926527
 H                 -3.00897106   -4.98677629   -0.48393209
 N                 -1.76049340   -2.15810692    0.75085970
 N                 -0.47681149   -2.90503466   -1.05949901
 O                  1.87724443   -1.92169117   -1.37793623
 C                 -0.97889740   -4.97010225   -2.34418923
 C                  0.24228649   -4.91505046   -3.02677934
 C                 -1.93248563   -5.93709220   -2.68732408
 C                  0.47436105   -5.76971446   -4.11431508
 C                 -1.68994507   -6.80799534   -3.75773089
 H                 -2.84684165   -6.00765198   -2.13563868
 C                 -0.49304699   -6.71403293   -4.48189204
 H                  1.39229268   -5.70424695   -4.66135559
 H                 -2.41895804   -7.54305313   -4.02391183
 H                 -0.31677708   -7.36452778   -5.31358847
 O                  1.26620701   -4.00667304   -2.59985459
 B                  0.71562137   -2.66392570   -2.07051707
 F                  0.20467121   -1.86444368   -3.17929056
 C                 -3.77149624   -3.38030279    1.60135766
 H                 -3.95701577   -2.65264322    2.36364447
 C                 -4.57676664   -4.46251121    1.48495346
 H                 -4.39268767   -5.18253263    0.71681855
 C                 -5.75384657   -4.66362958    2.45743174
 C                 -6.02393654   -3.70732293    3.44376080
 C                 -6.55341515   -5.80842065    2.35656046
 C                 -7.09252619   -3.89866923    4.33156936
 H                 -5.41486453   -2.83217370    3.51890079
 C                 -7.61786033   -6.00132432    3.24612360
 H                 -6.35003048   -6.53716246    1.60090539
 C                 -7.88846287   -5.04644097    4.23285605
 H                 -7.30053800   -3.16899368    5.08557977
 H                 -8.22384023   -6.87872079    3.17244709
 H                 -8.70314657   -5.19398850    4.91172941

 1 2 1.5 6 1.5 7 1.0
 2 3 1.5 18 1.0
 3 4 1.5 11 1.0
 4 5 1.5 12 1.0
 5 6 1.5 13 1.0
 6 14 1.0
 7 16 1.5 17 1.5
 8 9 1.5 17 1.5 19 1.0
 9 10 1.5 15 1.0
 10 16 1.5 32 1.0
 11
 12
 13
 14
 15
 16
 17 30 1.0
 18 30 1.0
 19 20 1.5 21 1.5
 20 22 1.5 29 1.0
 21 23 1.5 24 1.0
 22 25 1.5 26 1.0
 23 25 1.5 27 1.0
 24
 25 28 1.0
 26
 27
 28
 29 30 1.0
 30 31 1.0
 31
 32 33 1.0 34 2.0
 33
 34 35 1.0 36 1.0
 35
 36 37 1.5 38 1.5
 37 39 1.5 40 1.0
 38 41 1.5 42 1.0
 39 43 1.5 44 1.0
 40
 41 43 1.5 45 1.0
 42
 43 46 1.0
 44
 45
 46

