%chk=C:\Users\ayhan\Desktop\bekir\ArArMeO.chk
# opt freq b3lyp/6-31g(d) geom=connectivity

Title Card Required

0 1
 C                  1.60340401   -5.85567141    0.66203714
 C                  2.56837011   -5.94368884   -0.34962555
 C                  3.86236401   -6.38705256   -0.04503136
 C                  4.17452503   -6.79584137    1.25833613
 C                  3.19081134   -6.76628543    2.25606147
 C                  1.90416543   -6.29750924    1.95754808
 C                  0.21442345   -5.27576217    0.35018987
 C                 -1.17484547   -4.13122201   -1.12252315
 C                 -2.22489811   -4.24124346   -0.20954871
 C                 -1.99124859   -4.89467373    1.00197661
 H                  4.61069029   -6.41750307   -0.80911763
 H                  5.16280272   -7.13305186    1.49075095
 H                  3.42276304   -7.09948140    3.24589703
 H                  1.15350974   -6.27248238    2.71943795
 H                 -3.18848408   -3.83319489   -0.43343724
 N                 -0.77651395   -5.39771286    1.24999301
 N                  0.02095084   -4.63807859   -0.81403151
 O                  2.23189001   -5.60888641   -1.70063583
 C                 -1.37140090   -3.41611868   -2.46862978
 C                 -0.38733744   -3.51903712   -3.45998311
 C                 -2.53001655   -2.66422076   -2.70597164
 C                 -0.51829723   -2.79598954   -4.65320128
 C                 -2.67451808   -1.96406200   -3.91178511
 H                 -3.30146573   -2.62077467   -1.96585485
 C                 -1.66121541   -2.01727808   -4.87863564
 H                  0.25232573   -2.84247083   -5.39420132
 H                 -3.55715384   -1.38717465   -4.09327580
 H                 -1.76138523   -1.46567242   -5.78998103
 O                  0.73979708   -4.38286153   -3.27154523
 B                  1.23354715   -4.43799903   -1.81015226
 F                  1.89437358   -3.18433786   -1.45914095
 C                 -3.11609502   -5.03739037    2.04546647
 H                 -2.92412754   -5.53819264    2.97126003
 C                 -4.34775268   -4.53019012    1.79520782
 H                 -4.54481291   -4.03343487    0.86824098
 C                 -5.46345105   -4.66969200    2.84791944
 C                 -5.20256318   -5.31740477    4.06350833
 C                 -6.73880735   -4.14900021    2.59104556
 C                 -6.21626419   -5.44142345    5.02317732
 H                 -4.22912691   -5.71640715    4.25891575
 C                 -7.75283945   -4.27426449    3.55029476
 H                 -6.93823601   -3.65552790    1.66272711
 C                 -7.49122610   -4.91912311    4.76684001
 C                 -5.95517745   -6.08728585    6.23931438
 H                 -8.72680025   -3.87727055    3.35399601
 C                 -8.50463892   -5.04124084    5.72717442
 C                 -6.96865544   -6.20938965    7.19955310
 H                 -4.98205842   -6.48732436    6.43481190
 C                 -8.24330742   -5.68551089    6.94405597
 H                 -9.47796230   -4.64251010    5.53115968
 H                 -6.76947069   -6.70268076    8.12797076
 O                 -9.27738388   -5.80791989    7.92478944
 C                 -9.99783817   -7.02537452    7.71112413
 H                 -9.32870261   -7.85621705    7.79562511
 H                -10.77167875   -7.11518562    8.44449420
 H                -10.43228312   -7.01578573    6.73347083

 1 2 1.5 6 1.5 7 1.0
 2 3 1.5 18 1.0
 3 4 1.5 11 1.0
 4 5 1.5 12 1.0
 5 6 1.5 13 1.0
 6 14 1.0
 7 16 1.5 17 1.5
 8 9 1.5 17 1.5 19 1.0
 9 10 1.5 15 1.0
 10 16 1.5 32 1.0
 11
 12
 13
 14
 15
 16
 17 30 1.0
 18 30 1.0
 19 20 1.5 21 1.5
 20 22 1.5 29 1.0
 21 23 1.5 24 1.0
 22 25 1.5 26 1.0
 23 25 1.5 27 1.0
 24
 25 28 1.0
 26
 27
 28
 29 30 1.0
 30 31 1.0
 31
 32 33 1.0 34 2.0
 33
 34 35 1.0 36 1.0
 35
 36 37 1.5 38 1.5
 37 39 1.5 40 1.0
 38 41 1.5 42 1.0
 39 43 1.5 44 1.5
 40
 41 43 1.5 45 1.0
 42
 43 46 1.5
 44 47 1.5 48 1.0
 45
 46 49 1.5 50 1.0
 47 49 1.5 51 1.0
 48
 49 52 1.0
 50
 51
 52 53 1.0
 53 54 1.0 55 1.0 56 1.0
 54
 55
 56

