%chk=C:\Users\ayhan\Desktop\bekir\ArF3C.chk
# opt freq b3lyp/6-31g(d) geom=connectivity

Title Card Required

0 1
 C                  0.18354603   -0.83103491    0.09285425
 C                  1.39148040   -0.75736496   -0.61282453
 C                  2.17651341    0.40101092   -0.53455638
 C                  1.78149295    1.46100651    0.29277132
 C                  0.60358002    1.36095808    1.04531611
 C                 -0.19505433    0.21387119    0.94634285
 C                 -0.72596581   -2.05909949   -0.06807112
 C                 -1.24215702   -4.00957025   -1.22296757
 C                 -2.32444658   -4.22286951   -0.36951940
 C                 -2.56862242   -3.29641699    0.64441568
 H                  3.08009226    0.47420065   -1.10300319
 H                  2.38060997    2.34557431    0.35180314
 H                  0.31309520    2.16105480    1.69367182
 H                 -1.09592926    0.13785783    1.51867493
 H                 -2.95429917   -5.07942840   -0.48994422
 N                 -1.76186935   -2.23627177    0.77046933
 N                 -0.47880747   -2.92744432   -1.06035552
 O                  1.84280119   -1.87121624   -1.39261014
 C                 -0.93188926   -4.99412163   -2.35978296
 C                  0.28156899   -4.89627087   -3.05158451
 C                 -1.85844233   -5.98738395   -2.70324411
 C                  0.53004275   -5.73380268   -4.14744781
 C                 -1.59836390   -6.84287119   -3.78218494
 H                 -2.76572512   -6.08956153   -2.14530186
 C                 -0.41099170   -6.70566440   -4.51410568
 H                  1.44013633   -5.63449453   -4.70130682
 H                 -2.30686398   -7.59919491   -4.04849888
 H                 -0.22169844   -7.34461228   -5.35124395
 O                  1.28180107   -3.96207755   -2.62604499
 B                  0.69606406   -2.64162388   -2.08026521
 F                  0.14961753   -1.84797291   -3.17714362
 C                 -3.75353069   -3.49177018    1.60849381
 H                 -3.93584951   -2.77724664    2.38379758
 C                 -4.56526900   -4.56872664    1.47499496
 H                 -4.38299964   -5.28321946    0.69963088
 C                 -5.74995243   -4.76424290    2.43931156
 C                 -5.98905722   -3.82801670    3.45433192
 C                 -6.58887166   -5.87836408    2.30186906
 C                 -7.06698343   -4.00600785    4.33203027
 H                 -5.34859389   -2.97728806    3.55917541
 C                 -7.66673395   -6.05639769    3.17963117
 H                 -6.40639702   -6.59309911    1.52675763
 C                 -7.90575021   -5.12025871    4.19474622
 H                 -7.24959668   -3.29114553    5.10699671
 H                 -8.30718939   -6.90710261    3.07478748
 C                 -9.09011550   -5.31602606    5.15938866
 F                 -8.78860229   -4.77328820    6.35814547
 F                -10.18639352   -4.71122825    4.65458230
 F                 -9.33356691   -6.63520065    5.31107079

 1 2 1.5 6 1.5 7 1.0
 2 3 1.5 18 1.0
 3 4 1.5 11 1.0
 4 5 1.5 12 1.0
 5 6 1.5 13 1.0
 6 14 1.0
 7 16 1.5 17 1.5
 8 9 1.5 17 1.5 19 1.0
 9 10 1.5 15 1.0
 10 16 1.5 32 1.0
 11
 12
 13
 14
 15
 16
 17 30 1.0
 18 30 1.0
 19 20 1.5 21 1.5
 20 22 1.5 29 1.0
 21 23 1.5 24 1.0
 22 25 1.5 26 1.0
 23 25 1.5 27 1.0
 24
 25 28 1.0
 26
 27
 28
 29 30 1.0
 30 31 1.0
 31
 32 33 1.0 34 2.0
 33
 34 35 1.0 36 1.0
 35
 36 37 1.5 38 1.5
 37 39 1.5 40 1.0
 38 41 1.5 42 1.0
 39 43 1.5 44 1.0
 40
 41 43 1.5 45 1.0
 42
 43 46 1.0
 44
 45
 46 47 1.0 48 1.0 49 1.0
 47
 48
 49

