%chk=C:\Users\ayhan\Desktop\bekir\ArMeO.chk
# opt freq b3lyp/6-31g(d) geom=connectivity

Title Card Required

0 1
 C                  0.19273052   -0.82360784    0.08895647
 C                  1.39521776   -0.75081117   -0.62659112
 C                  2.18007436    0.40817028   -0.55850996
 C                  1.79132063    1.47027877    0.26861997
 C                  0.62016470    1.37152122    1.03176028
 C                 -0.17890866    0.22357778    0.94291965
 C                 -0.71754671   -2.05309221   -0.06238627
 C                 -1.23991493   -4.00587658   -1.21071096
 C                 -2.31688753   -4.21793611   -0.35109510
 C                 -2.55676924   -3.28987521    0.66191692
 H                  3.07884145    0.48013452   -1.13475717
 H                  2.38997297    2.35548713    0.31951034
 H                  0.33505022    2.17330133    1.68041029
 H                 -1.07471153    0.14878242    1.52318214
 H                 -2.94661309   -5.07527362   -0.46601104
 N                 -1.74793566   -2.23020406    0.78395651
 N                 -0.47650576   -2.92304045   -1.05513345
 O                  1.84159267   -1.86594885   -1.40660479
 C                 -0.93603148   -4.99310425   -2.34654438
 C                  0.27237007   -4.89586224   -3.04682584
 C                 -1.86368461   -5.98842350   -2.68063978
 C                  0.51475356   -5.73669310   -4.14130383
 C                 -1.60966370   -6.84723898   -3.75824775
 H                 -2.76725381   -6.08964965   -2.11649674
 C                 -0.42734428   -6.71108352   -4.49838347
 H                  1.42114782   -5.63808657   -4.70154371
 H                 -2.31888062   -7.60551723   -4.01728587
 H                 -0.24274859   -7.35279816   -5.33460364
 O                  1.27407479   -3.95908317   -2.63128821
 B                  0.69070928   -2.63820910   -2.08409609
 F                  0.13565980   -1.84703701   -3.17839167
 C                 -3.74089543   -3.48541780    1.62732364
 H                 -3.92159579   -2.77385524    2.40571559
 C                 -4.55399140   -4.56104541    1.48776755
 H                 -4.36889884   -5.27228205    0.71000194
 C                 -5.74382792   -4.76229658    2.44511390
 C                 -5.99213749   -3.83250977    3.46411676
 C                 -6.57926084   -5.87740075    2.29557796
 C                 -7.07737637   -4.01742639    4.33208944
 H                 -5.35364582   -2.98164787    3.57954354
 C                 -7.66352930   -6.06269004    3.16356282
 H                 -6.38904351   -6.58757554    1.51812906
 C                 -7.91336994   -5.13242430    4.18129402
 H                 -7.26747159   -3.30735440    5.10976204
 H                 -8.30069918   -6.91462958    3.04922054
 O                 -9.02138305   -5.32136858    5.06547694
 C                -10.17952323   -4.68266438    4.52134632
 H                -10.40683190   -5.10960118    3.56669778
 H                -11.00893094   -4.82474384    5.18225933
 H                 -9.98940610   -3.63581454    4.40778647

 1 2 1.5 6 1.5 7 1.0
 2 3 1.5 18 1.0
 3 4 1.5 11 1.0
 4 5 1.5 12 1.0
 5 6 1.5 13 1.0
 6 14 1.0
 7 16 1.5 17 1.5
 8 9 1.5 17 1.5 19 1.0
 9 10 1.5 15 1.0
 10 16 1.5 32 1.0
 11
 12
 13
 14
 15
 16
 17 30 1.0
 18 30 1.0
 19 20 1.5 21 1.5
 20 22 1.5 29 1.0
 21 23 1.5 24 1.0
 22 25 1.5 26 1.0
 23 25 1.5 27 1.0
 24
 25 28 1.0
 26
 27
 28
 29 30 1.0
 30 31 1.0
 31
 32 33 1.0 34 2.0
 33
 34 35 1.0 36 1.0
 35
 36 37 1.5 38 1.5
 37 39 1.5 40 1.0
 38 41 1.5 42 1.0
 39 43 1.5 44 1.0
 40
 41 43 1.5 45 1.0
 42
 43 46 1.0
 44
 45
 46 47 1.0
 47 48 1.0 49 1.0 50 1.0
 48
 49
 50

