%chk=C:\Users\ayhan\Desktop\bekir\ArPh2N.chk
# opt freq b3lyp/6-31g(d) geom=connectivity

Title Card Required

0 1
 C                  0.31844318   -1.04480725    0.25270139
 C                  1.53163021   -1.00413469   -0.44367402
 C                  2.39332471    0.08807945   -0.27159422
 C                  2.06034778    1.10824857    0.63201317
 C                  0.86814432    1.03537333    1.36624407
 C                 -0.00161063   -0.04398237    1.17683673
 C                 -0.66699503   -2.18944900    0.00842317
 C                 -1.32698255   -4.00345181   -1.28045454
 C                 -2.41888516   -4.19555277   -0.43365157
 C                 -2.58863165   -3.32815457    0.64448889
 H                  3.30662745    0.14108563   -0.82521607
 H                  2.71824612    1.94180807    0.76453195
 H                  0.62210127    1.80418702    2.06802968
 H                 -0.91281820   -0.10211107    1.73395684
 H                 -3.11158597   -4.99308316   -0.60753348
 N                 -1.70409216   -2.35147551    0.84278406
 N                 -0.48519210   -2.99720162   -1.04527127
 O                  1.90627950   -2.08830374   -1.30835669
 C                 -1.09580985   -4.92161573   -2.49011270
 C                  0.11901033   -4.86292667   -3.18502013
 C                 -2.09671325   -5.81269186   -2.89811152
 C                  0.29508096   -5.62736445   -4.34749097
 C                 -1.91196786   -6.59458563   -4.04537385
 H                 -3.00366260   -5.89222092   -2.33550274
 C                 -0.72389386   -6.48824120   -4.78122649
 H                  1.20775492   -5.55711738   -4.90225858
 H                 -2.67959296   -7.27103605   -4.36246267
 H                 -0.59274825   -7.06782108   -5.67135531
 O                  1.19084180   -4.04336495   -2.69440860
 B                  0.70688021   -2.72445513   -2.04888843
 F                  0.22031347   -1.81588664   -3.08436885
 C                 -3.78288883   -3.49242508    1.59615224
 H                 -3.87853685   -2.85713321    2.45446048
 C                 -4.71358819   -4.43614942    1.34484989
 H                 -4.62861417   -5.05504688    0.47664441
 C                 -5.89525728   -4.61547337    2.30707614
 C                 -5.97176358   -3.84359619    3.47433252
 C                 -6.89376889   -5.55010826    2.01527920
 C                 -7.03764976   -4.02656572    4.36533783
 H                 -5.21491205   -3.11646172    3.68737730
 C                 -7.97214886   -5.71513980    2.89088297
 H                 -6.83340079   -6.13855196    1.12366728
 C                 -8.03687301   -4.96531258    4.07083533
 H                 -7.08779548   -3.45038508    5.26705728
 H                 -8.74602116   -6.41723077    2.66023991
 N                 -9.15510840   -5.17620114    4.99424609
 C                -10.36292012   -5.49878130    4.22341080
 C                -10.63932134   -6.82539082    3.86700755
 C                -11.23619940   -4.46909812    3.84327555
 C                -11.79511842   -7.12361086    3.13227047
 H                 -9.96897480   -7.61006158    4.15421397
 C                -12.39200553   -4.76801594    3.11102390
 H                -11.02020705   -3.45475093    4.11311504
 C                -12.67204172   -6.09614690    2.75772220
 H                -12.00793381   -8.13511502    2.85593080
 H                -13.05979079   -3.98314434    2.82116380
 H                -13.55619152   -6.32525343    2.20108993
 C                 -8.81779256   -6.28623401    5.89689184
 C                 -9.35561916   -6.33430855    7.19322465
 C                 -7.95238092   -7.29941583    5.45586936
 C                 -9.02808713   -7.40040714    8.04443194
 H                -10.01355495   -5.55951093    7.53147240
 C                 -7.62309937   -8.36095757    6.30899324
 H                 -7.54220966   -7.26196053    4.46664496
 C                 -8.16241295   -8.41121412    7.60236584
 H                 -9.43800748   -7.44439016    9.03214891
 H                 -6.96007408   -9.13254988    5.97282385
 H                 -7.91371528   -9.22193697    8.25393217

 1 2 1.5 6 1.5 7 1.0
 2 3 1.5 18 1.0
 3 4 1.5 11 1.0
 4 5 1.5 12 1.0
 5 6 1.5 13 1.0
 6 14 1.0
 7 16 1.5 17 1.5
 8 9 1.5 17 1.5 19 1.0
 9 10 1.5 15 1.0
 10 16 1.5 32 1.0
 11
 12
 13
 14
 15
 16
 17 30 1.0
 18 30 1.0
 19 20 1.5 21 1.5
 20 22 1.5 29 1.0
 21 23 1.5 24 1.0
 22 25 1.5 26 1.0
 23 25 1.5 27 1.0
 24
 25 28 1.0
 26
 27
 28
 29 30 1.0
 30 31 1.0
 31
 32 33 1.0 34 2.0
 33
 34 35 1.0 36 1.0
 35
 36 37 1.5 38 1.5
 37 39 1.5 40 1.0
 38 41 1.5 42 1.0
 39 43 1.5 44 1.0
 40
 41 43 1.5 45 1.0
 42
 43 46 1.0
 44
 45
 46 47 1.0 58 1.0
 47 48 1.5 49 1.5
 48 50 1.5 51 1.0
 49 52 1.5 53 1.0
 50 54 1.5 55 1.0
 51
 52 54 1.5 56 1.0
 53
 54 57 1.0
 55
 56
 57
 58 59 1.5 60 1.5
 59 61 1.5 62 1.0
 60 63 1.5 64 1.0
 61 65 1.5 66 1.0
 62
 63 65 1.5 67 1.0
 64
 65 68 1.0
 66
 67
 68

