%chk=C:\Users\ayhan\Desktop\bekir\Me.chk
# opt freq b3lyp/6-31g(d) geom=connectivity

Title Card Required

0 1
 C                  0.23468899   -0.81570712    0.07997244
 C                  1.45229101   -0.78760034   -0.61301497
 C                  2.27244808    0.34432323   -0.53607530
 C                  1.90322290    1.42321321    0.27761156
 C                  0.71456836    1.37043730    1.01673025
 C                 -0.12038769    0.25076605    0.91815361
 C                 -0.70986017   -2.01846321   -0.07848819
 C                 -1.26772858   -3.96765812   -1.21776008
 C                 -2.35873845   -4.14566504   -0.36854293
 C                 -2.58555349   -3.20620310    0.63572803
 H                  3.18281629    0.38236001   -1.09531048
 H                  2.53028539    2.28645699    0.33664358
 H                  0.44320702    2.18561341    1.65449558
 H                 -1.03076383    0.21191716    1.47926527
 H                 -3.00897106   -4.98677629   -0.48393209
 N                 -1.76049340   -2.15810692    0.75085970
 N                 -0.47681149   -2.90503466   -1.05949901
 O                  1.87724443   -1.92169117   -1.37793623
 C                 -0.97889740   -4.97010225   -2.34418923
 C                  0.24228649   -4.91505046   -3.02677934
 C                 -1.93248563   -5.93709220   -2.68732408
 C                  0.47436105   -5.76971446   -4.11431508
 C                 -1.68994507   -6.80799534   -3.75773089
 H                 -2.84684165   -6.00765198   -2.13563868
 C                 -0.49304699   -6.71403293   -4.48189204
 H                  1.39229268   -5.70424695   -4.66135559
 H                 -2.41895804   -7.54305313   -4.02391183
 H                 -0.31677708   -7.36452778   -5.31358847
 O                  1.26620701   -4.00667304   -2.59985459
 B                  0.71562137   -2.66392570   -2.07051707
 F                  0.20467121   -1.86444368   -3.17929056
 C                 -3.77261144   -3.37199302    1.60268569
 H                 -4.68682451   -3.17786312    1.08169812
 H                 -3.78488089   -4.37156145    1.98427765
 H                 -3.67090260   -2.68174611    2.41392827

 1 2 1.5 6 1.5 7 1.0
 2 3 1.5 18 1.0
 3 4 1.5 11 1.0
 4 5 1.5 12 1.0
 5 6 1.5 13 1.0
 6 14 1.0
 7 16 1.5 17 1.5
 8 9 1.5 17 1.5 19 1.0
 9 10 1.5 15 1.0
 10 16 1.5 32 1.0
 11
 12
 13
 14
 15
 16
 17 30 1.0
 18 30 1.0
 19 20 1.5 21 1.5
 20 22 1.5 29 1.0
 21 23 1.5 24 1.0
 22 25 1.5 26 1.0
 23 25 1.5 27 1.0
 24
 25 28 1.0
 26
 27
 28
 29 30 1.0
 30 31 1.0
 31
 32 33 1.0 34 1.0 35 1.0
 33
 34
 35

